%время прогнозирования
time=30;
%количество видов операций
op_count=4;
%количество видов изделий
izd_count=5;
%максимальная вместимость склада
size_of_stock=10000;

% длительность каждой операции
op_len = [4, 2, 1, 3];
% изделия, которые нужны на вход каждой операции: каждая строка - операция, каждый столбец - тип изделия, значение на пересечении - количество таких изделий, которые нужны на вход данной операции
op_in = array2d(1..op_count, 1..izd_count,
   [0, 3, 1, 1, 0,
   0, 0, 0, 0, 1,
   0, 6, 0, 0, 0,
   0, 0, 0, 0, 1
   ]);

% изделия, которые выдаёт на выход каждая операция: каждая строка - операция, каждый столбец - тип изделия, значение на пересечении - количество таких изделий, которые выдает на выход данная операция   
op_out = array2d(1..op_count, 1..izd_count, [
    1, 0, 0, 0, 0,
    0, 3, 0, 0, 0,
    0, 0, 1, 0, 0,
    0, 0, 0, 1, 0
]);

% стартовое состояние склада, количество изделий каждого типа, которые лежат на складе изначально
izd_start = [0, 0, 0, 0, 100];

% количество станков
mach_count = 2;
% предназанчение станков для операций: по строкам станки, по столбцам типы операций, значение - может ли станок выполнять эту операцию (1) или не может (0)
mach = array2d(1..mach_count, 1..op_count, [
    1, 0, 0, 0,
    0, 1, 1, 1
]);

% сдача товаров заказчику: по строкам - время, по столбцам - типы изделий, значение - количество товаров этого типа, которое нужно сдать в это время (в этот день)
delivery = array2d(0..time, 1..izd_count, [
    0, 0, 0, 0, 0,
    0, 0, 0, 0, 0,
    0, 0, 0, 0, 0,
    0, 0, 0, 0, 0,
    0, 0, 0, 0, 0,
    0, 0, 0, 0, 0,
    0, 0, 0, 0, 0,
    0, 0, 0, 0, 0,
    0, 0, 0, 0, 0,
    0, 0, 0, 0, 0,
    0, 0, 0, 0, 0,
    0, 0, 0, 0, 0,
    0, 0, 0, 0, 0,
    0, 0, 0, 0, 0,
    0, 0, 0, 0, 0,
    0, 0, 0, 0, 0,
    0, 0, 0, 0, 0,
    0, 0, 0, 0, 0,
    0, 0, 0, 0, 0,
    0, 0, 0, 0, 0,
    0, 0, 0, 0, 0,
    0, 0, 0, 0, 0,
    0, 0, 0, 0, 0,
    0, 0, 0, 0, 0,
    0, 0, 0, 0, 0,
    0, 0, 0, 0, 0,
    0, 0, 0, 0, 0,
    0, 0, 0, 0, 0,
    0, 0, 0, 0, 0,
    1, 0, 0, 0, 0,
    0, 0, 0, 0, 0
]);

% объем каждого изделия
izd_size = [10,5,2,2,1];

% максимальное значение износа, для каждого станка
max_without_rest_duration = [20,10];
% время длительности малого тех. обслуживания
rest_time = [1,2];
% график запланированного большого тех. обслуживания: по строакам - время, по столбцам - станок, значение - находится ли в этот момент этот станок на большом тех. обслуживании (1) или нет (0)
now_big_rest = array2d(0..time, 1..mach_count, [
    0, 0,
    0, 0,
    0, 0,
    0, 0,
    0, 0,
    0, 0,
    0, 0,
    0, 0,
    0, 0,
    0, 0,
    0, 0,
    0, 0,
    0, 0,
    0, 0,
    0, 0,
    0, 0,
    0, 0,
    0, 0,
    0, 0,
    0, 0,
    0, 0,
    0, 0,
    0, 0,
    0, 0,
    0, 0,
    0, 0,
    1, 0,
    1, 0,
    1, 0,
    1, 0,
    1, 0
    
]);